% demand
num_movements = 38;
loading_factor = [1800, 1450, 1500, 1600, 900, 1600, 1850, 1950, 1400, 1500, 900, 850, 1650, 1300, 1200, 850, 800, 1700, 1600, 1950, 1550, 1900, 1550, 1800, 1100, 1100, 1250, 1650, 1700, 1500, 850, 1450, 850, 1100, 1900, 1850, 1150, 850];
pickup_time = [0, 0, 0, 0, 0, 0, 0, 1, 1, 1, 1, 2, 2, 2, 2, 3, 3, 3, 4, 4, 5, 6, 6, 6, 6, 6, 6, 6, 7, 8, 8, 8, 9, 10, 10, 10, 10, 10];
delivery_time = [1, 2, 2, 4, 1, 1, 1, 2, 2, 4, 2, 4, 4, 3, 4, 4, 5, 4, 6, 5, 6, 7, 8, 10, 8, 7, 7, 7, 8, 11, 10, 11, 10, 11, 11, 11, 11, 11];

% transporter definition
total_capacity = 11000;
num_decks = 4;
capacity = [3000, 3000, 1000, 4000];

% ways out of decks
num_ways_out = 2;
paths_out = array3d(decks, ways_out, decks, [
% ways out of deck d1
2, 4, 0, 0, 3, 4, 0, 0, 

% ways out of deck d2
4, 0, 0, 0, 0, 0, 0, 0,	

% ways out of deck d3
4, 0, 0, 0, 0, 0, 0, 0,	

% ways out of deck d4
0, 0, 0, 0,	0, 0, 0, 0,	

]);

